c defined variables: 8 9 10 11 12 13 14 15 16 17 18 19 20 21 22 23 24 25 26 27 28 29 30 31 32 33 55 56 60 62 63 64 65 67 68 70 71 72 73 74 75 76 77 78 79 80 81 82 83 85 
p cnf 400 600
a 1 2 3 4 5 6 7 38 39 40 41 42 43 44 45 46 47 48 49 50 51 52 0
e 8 9 10 11 12 13 14 15 16 17 18 19 20 21 22 23 24 25 26 27 28 29 30 31 32 33 55 56 60 62 63 64 65 67 68 70 71 72 73 74 75 76 77 78 79 80 81 82 83 85 307 308 309 310 311 312 313 314 315 316 317 318 319 320 321 322 323 324 325 326 327 328 329 330 331 332 333 334 335 336 337 338 339 340 341 342 343 344 345 346 347 348 349 350 351 352 353 354 355 356 357 358 359 360 361 362 363 364 365 366 367 368 369 370 371 372 373 374 375 376 377 378 379 380 381 382 383 384 385 386 387 388 389 390 391 392 393 394 395 396 397 398 399 400 0
d 34 42 43 44 45 0
d 35 38 39 0
d 36 40 41 0
d 37 46 47 48 49 50 51 52 0
d 53 1 2 3 4 5 6 7 38 39 40 41 42 43 44 45 46 47 48 49 50 51 52 0
d 54 1 2 3 4 5 6 7 38 39 40 41 42 43 44 45 46 47 48 49 50 51 52 0
d 57 1 2 3 4 5 6 7 38 39 40 41 42 43 44 45 46 47 48 49 50 51 52 0
d 58 1 2 3 4 5 6 7 38 39 40 41 42 43 44 45 46 47 48 49 50 51 52 0
d 59 1 2 3 4 5 6 7 38 39 40 41 42 43 44 45 46 47 48 49 50 51 52 0
d 61 1 2 3 4 5 6 7 38 39 40 41 42 43 44 45 46 47 48 49 50 51 52 0
d 66 1 2 3 4 5 6 7 38 39 40 41 42 43 44 45 46 47 48 49 50 51 52 0
d 69 1 2 3 4 5 6 7 38 39 40 41 42 43 44 45 46 47 48 49 50 51 52 0
d 84 1 2 3 4 5 6 7 38 39 40 41 42 43 44 45 46 47 48 49 50 51 52 0
308 -8 0
-308 8 0
309 -9 0
-309 9 0
-310 -10 0
310 10 0
311 -11 0
-311 11 0
312 -12 0
-312 12 0
-313 -13 0
313 13 0
314 -14 0
-314 14 0
315 -15 0
-315 15 0
-316 -16 0
316 16 0
317 -17 0
-317 17 0
318 -18 0
-318 18 0
-319 -19 0
319 19 0
320 -20 0
-320 20 0
321 -21 0
-321 21 0
-322 -22 0
322 22 0
-323 -23 0
323 23 0
324 -24 0
-324 24 0
326 -25 0
-326 25 0
328 -26 0
-328 26 0
-330 -27 0
330 27 0
331 -28 0
-331 28 0
332 -29 0
-332 29 0
334 -30 0
-334 30 0
335 -31 0
-335 31 0
336 -32 0
-336 32 0
-340 -33 0
340 33 0
-341 -55 0
341 55 0
-323 -56 0
323 56 0
335 -60 0
-335 60 0
-345 -62 0
345 62 0
-309 -63 0
309 63 0
309 -64 0
-309 64 0
307 -65 0
-307 65 0
348 -67 0
-348 67 0
351 -68 0
-351 68 0
354 -70 0
-354 70 0
357 -71 0
-357 71 0
360 -72 0
-360 72 0
363 -73 0
-363 73 0
-41 -74 0
41 74 0
366 -75 0
-366 75 0
369 -76 0
-369 76 0
372 -77 0
-372 77 0
-382 -78 0
382 78 0
385 -79 0
-385 79 0
388 -80 0
-388 80 0
391 -81 0
-391 81 0
394 -82 0
-394 82 0
397 -83 0
-397 83 0
400 -85 0
-400 85 0
-8 1 0
-8 4 0
-1 -4 8 0
-9 -1 0
-9 -4 0
1 4 9 0
-8 10 0
-9 10 0
-10 8 9 0
-11 7 0
-11 10 0
-7 -10 11 0
-12 -7 0
-12 -10 0
7 10 12 0
-11 13 0
-12 13 0
-13 11 12 0
-14 4 0
-14 7 0
-4 -7 14 0
-15 1 0
-15 -13 0
-1 13 15 0
-14 16 0
-15 16 0
-16 14 15 0
-17 3 0
-17 6 0
-3 -6 17 0
-18 -3 0
-18 -6 0
3 6 18 0
-17 19 0
-18 19 0
-19 17 18 0
-20 16 0
-20 19 0
-16 -19 20 0
-21 -16 0
-21 -19 0
16 19 21 0
-20 22 0
-21 22 0
-22 20 21 0
-2 23 0
-5 23 0
-23 2 5 0
-24 2 0
-24 5 0
-2 -5 24 0
-25 3 0
-25 -22 0
-25 23 0
-3 22 -23 25 0
-26 6 0
-26 16 0
-26 23 0
-6 -16 -23 26 0
-24 27 0
-25 27 0
-26 27 0
-27 24 25 26 0
-28 -27 0
-28 23 0
27 -23 28 0
-29 3 0
-29 6 0
-29 -27 0
-3 -6 27 29 0
-30 -27 0
-30 -22 0
-30 16 0
27 22 -16 30 0
-31 2 0
-31 3 0
-31 5 0
-31 6 0
-2 -3 -5 -6 31 0
-32 2 0
-32 5 0
-32 -22 0
-32 16 0
-2 -5 22 -16 32 0
-28 33 0
-29 33 0
-30 33 0
-31 33 0
-32 33 0
-33 28 29 30 31 32 0
-53 34 0
-53 35 0
-34 -35 53 0
-54 -34 0
-54 -35 0
34 35 54 0
-53 55 0
-54 55 0
-55 53 54 0
-2 56 0
-5 56 0
-56 2 5 0
-57 -37 0
-57 56 0
37 -56 57 0
-58 3 0
-58 6 0
-58 -37 0
-3 -6 37 58 0
-59 -37 0
-59 -55 0
-59 34 0
37 55 -34 59 0
-60 2 0
-60 3 0
-60 5 0
-60 6 0
-2 -3 -5 -6 60 0
-61 2 0
-61 5 0
-61 -55 0
-61 34 0
-2 -5 55 -34 61 0
-57 62 0
-58 62 0
-59 62 0
-60 62 0
-61 62 0
-62 57 58 59 60 61 0
-4 63 0
-1 63 0
-63 4 1 0
-64 -1 0
-64 -4 0
1 4 64 0
-63 65 0
-64 65 0
-65 63 64 0
-66 -27 37 0
-66 27 -37 0
66 -27 -37 0
66 27 37 0
-67 -33 62 0
-67 33 -62 0
67 -33 -62 0
67 33 62 0
-68 -22 55 0
-68 22 -55 0
68 -22 -55 0
68 22 55 0
-69 -13 36 0
-69 13 -36 0
69 -13 -36 0
69 13 36 0
-66 -67 -68 -69 70 0
-70 66 0
-70 67 0
-70 68 0
-70 69 0
-3 -38 -71 0
-3 38 71 0
3 -38 71 0
3 38 -71 0
-6 -39 -72 0
-6 39 72 0
6 -39 72 0
6 39 -72 0
-7 -40 -73 0
-7 40 73 0
7 -40 73 0
7 40 -73 0
-65 -41 -74 0
-65 41 74 0
65 -41 74 0
65 41 -74 0
-1 -42 -75 0
-1 42 75 0
1 -42 75 0
1 42 -75 0
-4 -43 -76 0
-4 43 76 0
4 -43 76 0
4 43 -76 0
-7 -44 -77 0
-7 44 77 0
7 -44 77 0
7 44 -77 0
-36 -45 -78 0
-36 45 78 0
36 -45 78 0
36 45 -78 0
-2 -46 -79 0
-2 46 79 0
2 -46 79 0
2 46 -79 0
-3 -47 -80 0
-3 47 80 0
3 -47 80 0
3 47 -80 0
-5 -48 -81 0
-5 48 81 0
5 -48 81 0
5 48 -81 0
-6 -49 -82 0
-6 49 82 0
6 -49 82 0
6 49 -82 0
-55 -50 -83 0
-55 50 83 0
55 -50 83 0
55 50 -83 0
-34 -51 -84 0
-34 51 84 0
34 -51 84 0
34 51 -84 0
-56 -52 -85 0
-56 52 85 0
56 -52 85 0
56 52 -85 0
71 72 73 74 75 76 77 78 79 80 81 82 83 84 85 70 0
307 0
1 -308 0
4 -308 0
-1 -4 308 0
-1 -309 0
-4 -309 0
1 4 309 0
-8 -310 0
-9 -310 0
8 9 310 0
7 -311 0
10 -311 0
-7 -10 311 0
-7 -312 0
-10 -312 0
7 10 312 0
-11 -313 0
-12 -313 0
11 12 313 0
4 -314 0
7 -314 0
-4 -7 314 0
1 -315 0
-13 -315 0
-1 13 315 0
-14 -316 0
-15 -316 0
14 15 316 0
3 -317 0
6 -317 0
-3 -6 317 0
-3 -318 0
-6 -318 0
3 6 318 0
-17 -319 0
-18 -319 0
17 18 319 0
16 -320 0
19 -320 0
-16 -19 320 0
-16 -321 0
-19 -321 0
16 19 321 0
-20 -322 0
-21 -322 0
20 21 322 0
-2 -323 0
-5 -323 0
2 5 323 0
2 -324 0
5 -324 0
-2 -5 324 0
3 -325 0
-22 -325 0
-3 22 325 0
23 -326 0
325 -326 0
-23 -325 326 0
6 -327 0
16 -327 0
-6 -16 327 0
23 -328 0
327 -328 0
-23 -327 328 0
-24 -329 0
-25 -329 0
24 25 329 0
-26 -330 0
329 -330 0
26 -329 330 0
23 -331 0
-27 -331 0
-23 27 331 0
-27 -332 0
317 -332 0
27 -317 332 0
16 -333 0
-22 -333 0
-16 22 333 0
-27 -334 0
333 -334 0
27 -333 334 0
317 -335 0
324 -335 0
-317 -324 335 0
324 -336 0
333 -336 0
-324 -333 336 0
-28 -337 0
-29 -337 0
28 29 337 0
-30 -338 0
-31 -338 0
30 31 338 0
-32 -339 0
338 -339 0
32 -338 339 0
337 -340 0
339 -340 0
-337 -339 340 0
-53 -341 0
-54 -341 0
53 54 341 0
-57 -342 0
-58 -342 0
57 58 342 0
-59 -343 0
-60 -343 0
59 60 343 0
-61 -344 0
343 -344 0
61 -343 344 0
342 -345 0
344 -345 0
-342 -344 345 0
33 -346 0
-62 -346 0
-33 62 346 0
-33 -347 0
62 -347 0
33 -62 347 0
-346 -348 0
-347 -348 0
346 347 348 0
22 -349 0
-55 -349 0
-22 55 349 0
-22 -350 0
55 -350 0
22 -55 350 0
-349 -351 0
-350 -351 0
349 350 351 0
66 -352 0
67 -352 0
-66 -67 352 0
68 -353 0
69 -353 0
-68 -69 353 0
352 -354 0
353 -354 0
-352 -353 354 0
-3 -355 0
-38 -355 0
3 38 355 0
3 -356 0
38 -356 0
-3 -38 356 0
-355 -357 0
-356 -357 0
355 356 357 0
-6 -358 0
-39 -358 0
6 39 358 0
6 -359 0
39 -359 0
-6 -39 359 0
-358 -360 0
-359 -360 0
358 359 360 0
-7 -361 0
-40 -361 0
7 40 361 0
7 -362 0
40 -362 0
-7 -40 362 0
-361 -363 0
-362 -363 0
361 362 363 0
-1 -364 0
-42 -364 0
1 42 364 0
1 -365 0
42 -365 0
-1 -42 365 0
-364 -366 0
-365 -366 0
364 365 366 0
-4 -367 0
-43 -367 0
4 43 367 0
4 -368 0
43 -368 0
-4 -43 368 0
-367 -369 0
-368 -369 0
367 368 369 0
-7 -370 0
-44 -370 0
7 44 370 0
7 -371 0
44 -371 0
-7 -44 371 0
-370 -372 0
-371 -372 0
370 371 372 0
45 -373 0
-69 -373 0
-45 69 373 0
-45 -374 0
69 -374 0
45 -69 374 0
-373 -375 0
-374 -375 0
373 374 375 0
11 -376 0
12 -376 0
-11 -12 376 0
13 -377 0
-313 -377 0
-13 313 377 0
-376 -378 0
377 -378 0
376 -377 378 0
-375 -379 0
378 -379 0
375 -378 379 0
-13 -380 0
313 -380 0
13 -313 380 0
375 -381 0
380 -381 0
-375 -380 381 0
-379 -382 0
-381 -382 0
379 381 382 0
-2 -383 0
-46 -383 0
2 46 383 0
2 -384 0
46 -384 0
-2 -46 384 0
-383 -385 0
-384 -385 0
383 384 385 0
-3 -386 0
-47 -386 0
3 47 386 0
3 -387 0
47 -387 0
-3 -47 387 0
-386 -388 0
-387 -388 0
386 387 388 0
-5 -389 0
-48 -389 0
5 48 389 0
5 -390 0
48 -390 0
-5 -48 390 0
-389 -391 0
-390 -391 0
389 390 391 0
-6 -392 0
-49 -392 0
6 49 392 0
6 -393 0
49 -393 0
-6 -49 393 0
-392 -394 0
-393 -394 0
392 393 394 0
-50 -395 0
-55 -395 0
50 55 395 0
50 -396 0
55 -396 0
-50 -55 396 0
-395 -397 0
-396 -397 0
395 396 397 0
-52 -398 0
-56 -398 0
52 56 398 0
52 -399 0
56 -399 0
-52 -56 399 0
-398 -400 0
-399 -400 0
398 399 400 0
